c graph colorability of graph:
c random_regular_graph(5, 98).
c
c Generated with `cnfgen`
c (C) 2012-2016 Massimo Lauria <lauria.massimo@gmail.com>
c https://massimolauria.github.io/cnfgen
c
p cnf 294 1127
1 2 3 0
-1 -2 0
-1 -3 0
-2 -3 0
4 5 6 0
-4 -5 0
-4 -6 0
-5 -6 0
7 8 9 0
-7 -8 0
-7 -9 0
-8 -9 0
10 11 12 0
-10 -11 0
-10 -12 0
-11 -12 0
13 14 15 0
-13 -14 0
-13 -15 0
-14 -15 0
16 17 18 0
-16 -17 0
-16 -18 0
-17 -18 0
19 20 21 0
-19 -20 0
-19 -21 0
-20 -21 0
22 23 24 0
-22 -23 0
-22 -24 0
-23 -24 0
25 26 27 0
-25 -26 0
-25 -27 0
-26 -27 0
28 29 30 0
-28 -29 0
-28 -30 0
-29 -30 0
31 32 33 0
-31 -32 0
-31 -33 0
-32 -33 0
34 35 36 0
-34 -35 0
-34 -36 0
-35 -36 0
37 38 39 0
-37 -38 0
-37 -39 0
-38 -39 0
40 41 42 0
-40 -41 0
-40 -42 0
-41 -42 0
43 44 45 0
-43 -44 0
-43 -45 0
-44 -45 0
46 47 48 0
-46 -47 0
-46 -48 0
-47 -48 0
49 50 51 0
-49 -50 0
-49 -51 0
-50 -51 0
52 53 54 0
-52 -53 0
-52 -54 0
-53 -54 0
55 56 57 0
-55 -56 0
-55 -57 0
-56 -57 0
58 59 60 0
-58 -59 0
-58 -60 0
-59 -60 0
61 62 63 0
-61 -62 0
-61 -63 0
-62 -63 0
64 65 66 0
-64 -65 0
-64 -66 0
-65 -66 0
67 68 69 0
-67 -68 0
-67 -69 0
-68 -69 0
70 71 72 0
-70 -71 0
-70 -72 0
-71 -72 0
73 74 75 0
-73 -74 0
-73 -75 0
-74 -75 0
76 77 78 0
-76 -77 0
-76 -78 0
-77 -78 0
79 80 81 0
-79 -80 0
-79 -81 0
-80 -81 0
82 83 84 0
-82 -83 0
-82 -84 0
-83 -84 0
85 86 87 0
-85 -86 0
-85 -87 0
-86 -87 0
88 89 90 0
-88 -89 0
-88 -90 0
-89 -90 0
91 92 93 0
-91 -92 0
-91 -93 0
-92 -93 0
94 95 96 0
-94 -95 0
-94 -96 0
-95 -96 0
97 98 99 0
-97 -98 0
-97 -99 0
-98 -99 0
100 101 102 0
-100 -101 0
-100 -102 0
-101 -102 0
103 104 105 0
-103 -104 0
-103 -105 0
-104 -105 0
106 107 108 0
-106 -107 0
-106 -108 0
-107 -108 0
109 110 111 0
-109 -110 0
-109 -111 0
-110 -111 0
112 113 114 0
-112 -113 0
-112 -114 0
-113 -114 0
115 116 117 0
-115 -116 0
-115 -117 0
-116 -117 0
118 119 120 0
-118 -119 0
-118 -120 0
-119 -120 0
121 122 123 0
-121 -122 0
-121 -123 0
-122 -123 0
124 125 126 0
-124 -125 0
-124 -126 0
-125 -126 0
127 128 129 0
-127 -128 0
-127 -129 0
-128 -129 0
130 131 132 0
-130 -131 0
-130 -132 0
-131 -132 0
133 134 135 0
-133 -134 0
-133 -135 0
-134 -135 0
136 137 138 0
-136 -137 0
-136 -138 0
-137 -138 0
139 140 141 0
-139 -140 0
-139 -141 0
-140 -141 0
142 143 144 0
-142 -143 0
-142 -144 0
-143 -144 0
145 146 147 0
-145 -146 0
-145 -147 0
-146 -147 0
148 149 150 0
-148 -149 0
-148 -150 0
-149 -150 0
151 152 153 0
-151 -152 0
-151 -153 0
-152 -153 0
154 155 156 0
-154 -155 0
-154 -156 0
-155 -156 0
157 158 159 0
-157 -158 0
-157 -159 0
-158 -159 0
160 161 162 0
-160 -161 0
-160 -162 0
-161 -162 0
163 164 165 0
-163 -164 0
-163 -165 0
-164 -165 0
166 167 168 0
-166 -167 0
-166 -168 0
-167 -168 0
169 170 171 0
-169 -170 0
-169 -171 0
-170 -171 0
172 173 174 0
-172 -173 0
-172 -174 0
-173 -174 0
175 176 177 0
-175 -176 0
-175 -177 0
-176 -177 0
178 179 180 0
-178 -179 0
-178 -180 0
-179 -180 0
181 182 183 0
-181 -182 0
-181 -183 0
-182 -183 0
184 185 186 0
-184 -185 0
-184 -186 0
-185 -186 0
187 188 189 0
-187 -188 0
-187 -189 0
-188 -189 0
190 191 192 0
-190 -191 0
-190 -192 0
-191 -192 0
193 194 195 0
-193 -194 0
-193 -195 0
-194 -195 0
196 197 198 0
-196 -197 0
-196 -198 0
-197 -198 0
199 200 201 0
-199 -200 0
-199 -201 0
-200 -201 0
202 203 204 0
-202 -203 0
-202 -204 0
-203 -204 0
205 206 207 0
-205 -206 0
-205 -207 0
-206 -207 0
208 209 210 0
-208 -209 0
-208 -210 0
-209 -210 0
211 212 213 0
-211 -212 0
-211 -213 0
-212 -213 0
214 215 216 0
-214 -215 0
-214 -216 0
-215 -216 0
217 218 219 0
-217 -218 0
-217 -219 0
-218 -219 0
220 221 222 0
-220 -221 0
-220 -222 0
-221 -222 0
223 224 225 0
-223 -224 0
-223 -225 0
-224 -225 0
226 227 228 0
-226 -227 0
-226 -228 0
-227 -228 0
229 230 231 0
-229 -230 0
-229 -231 0
-230 -231 0
232 233 234 0
-232 -233 0
-232 -234 0
-233 -234 0
235 236 237 0
-235 -236 0
-235 -237 0
-236 -237 0
238 239 240 0
-238 -239 0
-238 -240 0
-239 -240 0
241 242 243 0
-241 -242 0
-241 -243 0
-242 -243 0
244 245 246 0
-244 -245 0
-244 -246 0
-245 -246 0
247 248 249 0
-247 -248 0
-247 -249 0
-248 -249 0
250 251 252 0
-250 -251 0
-250 -252 0
-251 -252 0
253 254 255 0
-253 -254 0
-253 -255 0
-254 -255 0
256 257 258 0
-256 -257 0
-256 -258 0
-257 -258 0
259 260 261 0
-259 -260 0
-259 -261 0
-260 -261 0
262 263 264 0
-262 -263 0
-262 -264 0
-263 -264 0
265 266 267 0
-265 -266 0
-265 -267 0
-266 -267 0
268 269 270 0
-268 -269 0
-268 -270 0
-269 -270 0
271 272 273 0
-271 -272 0
-271 -273 0
-272 -273 0
274 275 276 0
-274 -275 0
-274 -276 0
-275 -276 0
277 278 279 0
-277 -278 0
-277 -279 0
-278 -279 0
280 281 282 0
-280 -281 0
-280 -282 0
-281 -282 0
283 284 285 0
-283 -284 0
-283 -285 0
-284 -285 0
286 287 288 0
-286 -287 0
-286 -288 0
-287 -288 0
289 290 291 0
-289 -290 0
-289 -291 0
-290 -291 0
292 293 294 0
-292 -293 0
-292 -294 0
-293 -294 0
-1 -4 0
-2 -5 0
-3 -6 0
-1 -136 0
-2 -137 0
-3 -138 0
-1 -160 0
-2 -161 0
-3 -162 0
-1 -238 0
-2 -239 0
-3 -240 0
-1 -259 0
-2 -260 0
-3 -261 0
-4 -91 0
-5 -92 0
-6 -93 0
-4 -103 0
-5 -104 0
-6 -105 0
-4 -160 0
-5 -161 0
-6 -162 0
-4 -265 0
-5 -266 0
-6 -267 0
-7 -31 0
-8 -32 0
-9 -33 0
-7 -196 0
-8 -197 0
-9 -198 0
-7 -247 0
-8 -248 0
-9 -249 0
-7 -268 0
-8 -269 0
-9 -270 0
-7 -271 0
-8 -272 0
-9 -273 0
-10 -100 0
-11 -101 0
-12 -102 0
-10 -121 0
-11 -122 0
-12 -123 0
-10 -151 0
-11 -152 0
-12 -153 0
-10 -166 0
-11 -167 0
-12 -168 0
-10 -178 0
-11 -179 0
-12 -180 0
-13 -88 0
-14 -89 0
-15 -90 0
-13 -91 0
-14 -92 0
-15 -93 0
-13 -136 0
-14 -137 0
-15 -138 0
-13 -283 0
-14 -284 0
-15 -285 0
-13 -289 0
-14 -290 0
-15 -291 0
-16 -58 0
-17 -59 0
-18 -60 0
-16 -109 0
-17 -110 0
-18 -111 0
-16 -187 0
-17 -188 0
-18 -189 0
-16 -262 0
-17 -263 0
-18 -264 0
-16 -292 0
-17 -293 0
-18 -294 0
-19 -82 0
-20 -83 0
-21 -84 0
-19 -106 0
-20 -107 0
-21 -108 0
-19 -115 0
-20 -116 0
-21 -117 0
-19 -124 0
-20 -125 0
-21 -126 0
-19 -169 0
-20 -170 0
-21 -171 0
-22 -133 0
-23 -134 0
-24 -135 0
-22 -148 0
-23 -149 0
-24 -150 0
-22 -169 0
-23 -170 0
-24 -171 0
-22 -265 0
-23 -266 0
-24 -267 0
-22 -289 0
-23 -290 0
-24 -291 0
-25 -73 0
-26 -74 0
-27 -75 0
-25 -142 0
-26 -143 0
-27 -144 0
-25 -166 0
-26 -167 0
-27 -168 0
-25 -178 0
-26 -179 0
-27 -180 0
-25 -232 0
-26 -233 0
-27 -234 0
-28 -70 0
-29 -71 0
-30 -72 0
-28 -106 0
-29 -107 0
-30 -108 0
-28 -187 0
-29 -188 0
-30 -189 0
-28 -223 0
-29 -224 0
-30 -225 0
-28 -265 0
-29 -266 0
-30 -267 0
-31 -40 0
-32 -41 0
-33 -42 0
-31 -157 0
-32 -158 0
-33 -159 0
-31 -268 0
-32 -269 0
-33 -270 0
-31 -280 0
-32 -281 0
-33 -282 0
-34 -151 0
-35 -152 0
-36 -153 0
-34 -202 0
-35 -203 0
-36 -204 0
-34 -205 0
-35 -206 0
-36 -207 0
-34 -238 0
-35 -239 0
-36 -240 0
-34 -286 0
-35 -287 0
-36 -288 0
-37 -73 0
-38 -74 0
-39 -75 0
-37 -196 0
-38 -197 0
-39 -198 0
-37 -271 0
-38 -272 0
-39 -273 0
-37 -274 0
-38 -275 0
-39 -276 0
-37 -277 0
-38 -278 0
-39 -279 0
-40 -70 0
-41 -71 0
-42 -72 0
-40 -79 0
-41 -80 0
-42 -81 0
-40 -127 0
-41 -128 0
-42 -129 0
-40 -133 0
-41 -134 0
-42 -135 0
-43 -85 0
-44 -86 0
-45 -87 0
-43 -130 0
-44 -131 0
-45 -132 0
-43 -196 0
-44 -197 0
-45 -198 0
-43 -214 0
-44 -215 0
-45 -216 0
-43 -253 0
-44 -254 0
-45 -255 0
-46 -55 0
-47 -56 0
-48 -57 0
-46 -151 0
-47 -152 0
-48 -153 0
-46 -181 0
-47 -182 0
-48 -183 0
-46 -223 0
-47 -224 0
-48 -225 0
-46 -262 0
-47 -263 0
-48 -264 0
-49 -61 0
-50 -62 0
-51 -63 0
-49 -109 0
-50 -110 0
-51 -111 0
-49 -145 0
-50 -146 0
-51 -147 0
-49 -160 0
-50 -161 0
-51 -162 0
-49 -274 0
-50 -275 0
-51 -276 0
-52 -58 0
-53 -59 0
-54 -60 0
-52 -112 0
-53 -113 0
-54 -114 0
-52 -139 0
-53 -140 0
-54 -141 0
-52 -154 0
-53 -155 0
-54 -156 0
-52 -172 0
-53 -173 0
-54 -174 0
-55 -67 0
-56 -68 0
-57 -69 0
-55 -241 0
-56 -242 0
-57 -243 0
-55 -250 0
-56 -251 0
-57 -252 0
-55 -286 0
-56 -287 0
-57 -288 0
-58 -88 0
-59 -89 0
-60 -90 0
-58 -112 0
-59 -113 0
-60 -114 0
-58 -148 0
-59 -149 0
-60 -150 0
-61 -67 0
-62 -68 0
-63 -69 0
-61 -121 0
-62 -122 0
-63 -123 0
-61 -208 0
-62 -209 0
-63 -210 0
-61 -286 0
-62 -287 0
-63 -288 0
-64 -139 0
-65 -140 0
-66 -141 0
-64 -163 0
-65 -164 0
-66 -165 0
-64 -172 0
-65 -173 0
-66 -174 0
-64 -190 0
-65 -191 0
-66 -192 0
-64 -253 0
-65 -254 0
-66 -255 0
-67 -151 0
-68 -152 0
-69 -153 0
-67 -193 0
-68 -194 0
-69 -195 0
-67 -196 0
-68 -197 0
-69 -198 0
-70 -169 0
-71 -170 0
-72 -171 0
-70 -241 0
-71 -242 0
-72 -243 0
-70 -277 0
-71 -278 0
-72 -279 0
-73 -127 0
-74 -128 0
-75 -129 0
-73 -154 0
-74 -155 0
-75 -156 0
-73 -181 0
-74 -182 0
-75 -183 0
-76 -124 0
-77 -125 0
-78 -126 0
-76 -127 0
-77 -128 0
-78 -129 0
-76 -157 0
-77 -158 0
-78 -159 0
-76 -175 0
-77 -176 0
-78 -177 0
-76 -199 0
-77 -200 0
-78 -201 0
-79 -103 0
-80 -104 0
-81 -105 0
-79 -112 0
-80 -113 0
-81 -114 0
-79 -160 0
-80 -161 0
-81 -162 0
-79 -283 0
-80 -284 0
-81 -285 0
-82 -130 0
-83 -131 0
-84 -132 0
-82 -157 0
-83 -158 0
-84 -159 0
-82 -211 0
-83 -212 0
-84 -213 0
-82 -220 0
-83 -221 0
-84 -222 0
-85 -145 0
-86 -146 0
-87 -147 0
-85 -199 0
-86 -200 0
-87 -201 0
-85 -244 0
-86 -245 0
-87 -246 0
-85 -277 0
-86 -278 0
-87 -279 0
-88 -166 0
-89 -167 0
-90 -168 0
-88 -193 0
-89 -194 0
-90 -195 0
-88 -214 0
-89 -215 0
-90 -216 0
-91 -181 0
-92 -182 0
-93 -183 0
-91 -247 0
-92 -248 0
-93 -249 0
-91 -274 0
-92 -275 0
-93 -276 0
-94 -97 0
-95 -98 0
-96 -99 0
-94 -106 0
-95 -107 0
-96 -108 0
-94 -205 0
-95 -206 0
-96 -207 0
-94 -208 0
-95 -209 0
-96 -210 0
-94 -235 0
-95 -236 0
-96 -237 0
-97 -142 0
-98 -143 0
-99 -144 0
-97 -271 0
-98 -272 0
-99 -273 0
-97 -286 0
-98 -287 0
-99 -288 0
-97 -292 0
-98 -293 0
-99 -294 0
-100 -154 0
-101 -155 0
-102 -156 0
-100 -172 0
-101 -173 0
-102 -174 0
-100 -202 0
-101 -203 0
-102 -204 0
-100 -217 0
-101 -218 0
-102 -219 0
-103 -136 0
-104 -137 0
-105 -138 0
-103 -226 0
-104 -227 0
-105 -228 0
-103 -262 0
-104 -263 0
-105 -264 0
-106 -217 0
-107 -218 0
-108 -219 0
-106 -268 0
-107 -269 0
-108 -270 0
-109 -229 0
-110 -230 0
-111 -231 0
-109 -259 0
-110 -260 0
-111 -261 0
-109 -289 0
-110 -290 0
-111 -291 0
-112 -223 0
-113 -224 0
-114 -225 0
-112 -271 0
-113 -272 0
-114 -273 0
-115 -172 0
-116 -173 0
-117 -174 0
-115 -190 0
-116 -191 0
-117 -192 0
-115 -220 0
-116 -221 0
-117 -222 0
-115 -265 0
-116 -266 0
-117 -267 0
-118 -202 0
-119 -203 0
-120 -204 0
-118 -208 0
-119 -209 0
-120 -210 0
-118 -229 0
-119 -230 0
-120 -231 0
-118 -238 0
-119 -239 0
-120 -240 0
-118 -256 0
-119 -257 0
-120 -258 0
-121 -142 0
-122 -143 0
-123 -144 0
-121 -211 0
-122 -212 0
-123 -213 0
-121 -289 0
-122 -290 0
-123 -291 0
-124 -166 0
-125 -167 0
-126 -168 0
-124 -169 0
-125 -170 0
-126 -171 0
-124 -283 0
-125 -284 0
-126 -285 0
-127 -184 0
-128 -185 0
-129 -186 0
-127 -199 0
-128 -200 0
-129 -201 0
-130 -214 0
-131 -215 0
-132 -216 0
-130 -241 0
-131 -242 0
-132 -243 0
-130 -250 0
-131 -251 0
-132 -252 0
-133 -142 0
-134 -143 0
-135 -144 0
-133 -187 0
-134 -188 0
-135 -189 0
-133 -280 0
-134 -281 0
-135 -282 0
-136 -139 0
-137 -140 0
-138 -141 0
-136 -292 0
-137 -293 0
-138 -294 0
-139 -250 0
-140 -251 0
-141 -252 0
-139 -268 0
-140 -269 0
-141 -270 0
-142 -178 0
-143 -179 0
-144 -180 0
-145 -148 0
-146 -149 0
-147 -150 0
-145 -184 0
-146 -185 0
-147 -186 0
-145 -187 0
-146 -188 0
-147 -189 0
-148 -196 0
-149 -197 0
-150 -198 0
-148 -235 0
-149 -236 0
-150 -237 0
-151 -193 0
-152 -194 0
-153 -195 0
-154 -211 0
-155 -212 0
-156 -213 0
-154 -229 0
-155 -230 0
-156 -231 0
-157 -208 0
-158 -209 0
-159 -210 0
-157 -271 0
-158 -272 0
-159 -273 0
-160 -223 0
-161 -224 0
-162 -225 0
-163 -175 0
-164 -176 0
-165 -177 0
-163 -199 0
-164 -200 0
-165 -201 0
-163 -280 0
-164 -281 0
-165 -282 0
-163 -286 0
-164 -287 0
-165 -288 0
-166 -250 0
-167 -251 0
-168 -252 0
-169 -226 0
-170 -227 0
-171 -228 0
-172 -283 0
-173 -284 0
-174 -285 0
-175 -235 0
-176 -236 0
-177 -237 0
-175 -253 0
-176 -254 0
-177 -255 0
-175 -256 0
-176 -257 0
-177 -258 0
-178 -232 0
-179 -233 0
-180 -234 0
-178 -259 0
-179 -260 0
-180 -261 0
-181 -190 0
-182 -191 0
-183 -192 0
-181 -226 0
-182 -227 0
-183 -228 0
-184 -226 0
-185 -227 0
-186 -228 0
-184 -229 0
-185 -230 0
-186 -231 0
-184 -238 0
-185 -239 0
-186 -240 0
-187 -253 0
-188 -254 0
-189 -255 0
-190 -193 0
-191 -194 0
-192 -195 0
-190 -244 0
-191 -245 0
-192 -246 0
-193 -256 0
-194 -257 0
-195 -258 0
-199 -220 0
-200 -221 0
-201 -222 0
-202 -247 0
-203 -248 0
-204 -249 0
-202 -262 0
-203 -263 0
-204 -264 0
-205 -211 0
-206 -212 0
-207 -213 0
-205 -220 0
-206 -221 0
-207 -222 0
-205 -244 0
-206 -245 0
-207 -246 0
-208 -232 0
-209 -233 0
-210 -234 0
-211 -220 0
-212 -221 0
-213 -222 0
-214 -256 0
-215 -257 0
-216 -258 0
-214 -280 0
-215 -281 0
-216 -282 0
-217 -232 0
-218 -233 0
-219 -234 0
-217 -283 0
-218 -284 0
-219 -285 0
-217 -292 0
-218 -293 0
-219 -294 0
-223 -292 0
-224 -293 0
-225 -294 0
-226 -265 0
-227 -266 0
-228 -267 0
-229 -274 0
-230 -275 0
-231 -276 0
-232 -250 0
-233 -251 0
-234 -252 0
-235 -247 0
-236 -248 0
-237 -249 0
-235 -256 0
-236 -257 0
-237 -258 0
-238 -274 0
-239 -275 0
-240 -276 0
-241 -259 0
-242 -260 0
-243 -261 0
-241 -268 0
-242 -269 0
-243 -270 0
-244 -247 0
-245 -248 0
-246 -249 0
-244 -259 0
-245 -260 0
-246 -261 0
-253 -277 0
-254 -278 0
-255 -279 0
-262 -277 0
-263 -278 0
-264 -279 0
-280 -289 0
-281 -290 0
-282 -291 0
